(set-logic QF_BV)
(declare-fun _substvar_1045_ () (_ BitVec 16))
(declare-fun _substvar_1047_ () (_ BitVec 16))
(assert (let ((?v_0 ((_ extract 15 15) _substvar_1045_))) (let ((?v_1 (bvand (bvnot ?v_0) (bvnot ((_ extract 14 14) _substvar_1045_))))) (let ((?v_2 (bvand ?v_1 (bvnot ((_ extract 13 13) _substvar_1045_))))) (let ((?v_3 (bvand ?v_2 (bvnot ((_ extract 12 12) _substvar_1045_))))) (let ((?v_4 (bvand ?v_3 (bvnot ((_ extract 11 11) _substvar_1045_))))) (let ((?v_5 (bvand ?v_4 (bvnot ((_ extract 10 10) _substvar_1045_))))) (let ((?v_6 (bvand ?v_5 (bvnot ((_ extract 9 9) _substvar_1045_))))) (let ((?v_7 (bvand ?v_6 (bvnot ((_ extract 8 8) _substvar_1045_))))) (let ((?v_8 (bvand ?v_7 (bvnot ((_ extract 7 7) _substvar_1045_))))) (let ((?v_9 (bvand ?v_8 (bvnot ((_ extract 6 6) _substvar_1045_))))) (let ((?v_10 (bvand ?v_9 (bvnot ((_ extract 5 5) _substvar_1045_))))) (let ((?v_11 (bvand ?v_10 (bvnot ((_ extract 4 4) _substvar_1045_))))) (let ((?v_12 (bvand ?v_11 (bvnot ((_ extract 3 3) _substvar_1045_))))) (let ((?v_13 (bvand ?v_12 (bvnot ((_ extract 2 2) _substvar_1045_))))) (not (= (bvnot (ite (= (bvnot (ite (= ((_ extract 31 16) (bvmul (concat (_ bv0 16) _substvar_1047_) (concat (_ bv0 16) _substvar_1045_))) (_ bv0 16)) (_ bv1 1) (_ bv0 1))) (bvnot (bvand (bvand (bvand (bvand (bvand (bvand (bvand (bvand (bvand (bvand (bvand (bvand (bvand (bvand (bvand (bvnot (bvand ((_ extract 1 1) _substvar_1047_) ?v_0)) (bvnot (bvand ((_ extract 2 2) _substvar_1047_) (bvnot ?v_1)))) (bvnot (bvand ((_ extract 3 3) _substvar_1047_) (bvnot ?v_2)))) (bvnot (bvand ((_ extract 4 4) _substvar_1047_) (bvnot ?v_3)))) (bvnot (bvand ((_ extract 5 5) _substvar_1047_) (bvnot ?v_4)))) (bvnot (bvand ((_ extract 6 6) _substvar_1047_) (bvnot ?v_5)))) (bvnot (bvand ((_ extract 7 7) _substvar_1047_) (bvnot ?v_6)))) (bvnot (bvand ((_ extract 8 8) _substvar_1047_) (bvnot ?v_7)))) (bvnot (bvand ((_ extract 9 9) _substvar_1047_) (bvnot ?v_8)))) (bvnot (bvand ((_ extract 10 10) _substvar_1047_) (bvnot ?v_9)))) (bvnot (bvand ((_ extract 11 11) _substvar_1047_) (bvnot ?v_10)))) (bvnot (bvand ((_ extract 12 12) _substvar_1047_) (bvnot ?v_11)))) (bvnot (bvand ((_ extract 13 13) _substvar_1047_) (bvnot ?v_12)))) (bvnot (bvand ((_ extract 14 14) _substvar_1047_) (bvnot ?v_13)))) (bvnot (bvand ((_ extract 15 15) _substvar_1047_) (bvnot (bvand ?v_13 (bvnot ((_ extract 1 1) _substvar_1045_))))))) (bvnot ((_ extract 16 16) (bvmul (concat (_ bv0 1) _substvar_1047_) (concat (_ bv0 1) _substvar_1045_))))))) (_ bv1 1) (_ bv0 1))) (_ bv0 1))))))))))))))))))
(check-sat)
(exit)
